NAME : mEgtspf.pid4256.gtsp.241592048.tour
COMMENT : Length = 241592048
COMMENT : Found by LKH [Keld Helsgaun] Mon Mar 10 15:04:22 2025
TYPE : TOUR
DIMENSION : 135
TOUR_SECTION
1
100
101
102
103
75
72
73
74
7
131
128
129
130
43
40
41
42
90
91
88
89
29
30
31
28
13
27
24
25
26
32
33
34
35
109
110
111
108
44
45
46
47
6
112
113
114
115
11
120
121
122
123
127
124
125
126
9
17
18
19
16
104
105
106
107
67
64
65
66
10
94
95
92
93
5
49
50
51
48
86
87
84
85
62
63
60
61
8
58
59
56
57
135
132
133
134
4
14
116
117
118
119
15
12
55
52
53
54
96
97
98
99
69
70
71
68
2
37
38
39
36
81
82
83
80
77
78
79
76
3
23
20
21
22
-1
EOF
